17	4	3
27	24	18	23	15	13	19	
0	0	0	0	0	5	8	10	4	7	2	3	2	3	4
9	0	0	4	0	9	7	7	10	7	6	3	6	7	15
2	1	6	1	0	7	7	6	7	1	10	1	5
7	0	5	0	5	3	8	1	9	7	2	1	8
4	0	2	0	0	9	10	3	1	3	7	1	17
175	4	8	0	7	9	7	5	9	10	1	3	9	13	14
150	7	0	3	4	10	9	8	6	8	4	1	16
75	4	0	9	6	1	5	10	7	2	10	1	16
150	2	2	5	0	7	5	7	7	4	4	2	10	17
175	0	4	1	9	9	2	4	2	3	6	3	11	16	17
175	0	0	0	1	8	2	3	3	10	2	2	12	17
75	3	3	0	0	3	9	1	10	5	9	2	17	17
9	1	0	3	0	3	6	3	3	2	5	1	17
6	10	0	0	3	2	8	9	9	5	2	1	17
5	7	0	5	0	3	3	4	6	4	6	2	17	17
7	10	0	0	0	1	2	7	4	4	7	1	17
0	0	0	0	0	5	7	6	6	7	10	0
